qbf_easy_train/easy_4099_SAT.qdimacs
p cnf 19 44
a 18 6 15 0
e 1 2 3 4 5 7 8 9 10 11 12 13 14 16 17 19 0
3 1 0
3 -2 0
-1 2 -3 0
4 5 -6 0
-4 -5 -6 0
4 -5 6 0
-4 5 6 0
-6 -1 -7 0
6 1 -7 0
-6 1 7 0
6 -1 7 0
-8 3 0
-8 7 0
-3 -7 8 0
9 -10 -11 0
-9 10 -11 0
9 10 11 0
-9 -10 11 0
-11 5 -12 0
11 -5 -12 0
-11 -5 12 0
11 5 12 0
-14 -13 0
-14 4 0
13 -4 14 0
-15 -12 0
-15 -14 0
12 14 15 0
-16 5 -17 0
16 -5 -17 0
-16 -5 17 0
16 5 17 0
-15 17 -18 0
15 -17 -18 0
-15 -17 18 0
15 17 18 0
19 8 0
19 18 0
-8 -18 -19 0
-9 -4 -6 0
11 -7 10 -15 4 -18 0
-1 8 16 17 18 4 -5 0
13 -14 5 16 2 -4 0
19 0
