sat_easy_train/easy_4099_SAT.dimacs
p cnf 94 298
3 1 0
3 -2 0
-1 2 -3 0
7 5 0
7 6 0
-5 -6 -7 0
8 -4 0
8 -7 0
4 7 -8 0
-10 9 0
-10 2 0
-9 -2 10 0
-11 -8 0
-11 -10 0
8 10 11 0
-13 -5 0
-13 -12 0
5 12 13 0
-13 4 -14 0
13 -4 -14 0
-13 -4 14 0
13 4 14 0
14 -15 -16 0
-14 15 -16 0
14 15 16 0
-14 -15 16 0
-17 -11 0
-17 16 0
11 -16 17 0
-20 18 0
-20 -19 0
-18 19 20 0
21 20 0
21 -2 0
-20 2 -21 0
22 -18 0
22 12 0
18 -12 -22 0
-1 10 -23 0
1 -10 -23 0
-1 -10 23 0
1 10 23 0
24 22 0
24 23 0
-22 -23 -24 0
21 -24 -25 0
-21 24 -25 0
21 24 25 0
-21 -24 25 0
-26 17 0
-26 -25 0
-17 25 26 0
-27 3 0
-27 -26 0
-3 26 27 0
5 -13 -28 0
-5 13 -28 0
5 13 28 0
-5 -13 28 0
-30 5 0
-30 29 0
-5 -29 30 0
-32 20 0
-32 9 0
-20 -9 32 0
33 31 0
33 32 0
-31 -32 -33 0
34 -30 0
34 33 0
30 -33 -34 0
2 -31 -35 0
-2 31 -35 0
2 31 35 0
-2 -31 35 0
38 -36 0
38 -37 0
36 37 -38 0
35 -38 -39 0
-35 38 -39 0
35 38 39 0
-35 -38 39 0
41 7 0
41 6 0
-7 -6 -41 0
40 41 -42 0
-40 -41 -42 0
40 -41 42 0
-40 41 42 0
43 -39 0
43 -42 0
39 42 -43 0
45 2 0
45 44 0
-2 -44 -45 0
-46 -45 0
-46 18 0
45 -18 46 0
47 43 0
47 46 0
-43 -46 -47 0
29 -44 -48 0
-29 44 -48 0
29 44 48 0
-29 -44 48 0
-49 2 0
-49 48 0
-2 -48 49 0
45 -49 -50 0
-45 49 -50 0
45 49 50 0
-45 -49 50 0
-51 -1 0
-51 50 0
1 -50 51 0
52 -47 0
52 -51 0
47 51 -52 0
-53 -34 0
-53 52 0
34 -52 53 0
54 28 0
54 53 0
-28 -53 -54 0
-55 -40 0
-55 36 0
40 -36 55 0
-56 55 0
-56 -12 0
-55 12 56 0
20 55 -57 0
-20 -55 -57 0
20 -55 57 0
-20 55 57 0
56 -57 -58 0
-56 57 -58 0
56 57 58 0
-56 -57 58 0
59 -55 0
59 44 0
55 -44 -59 0
-60 -40 0
-60 -59 0
40 59 60 0
-61 58 0
-61 -60 0
-58 60 61 0
-62 -49 0
-62 -12 0
49 12 62 0
7 40 -63 0
-7 -40 -63 0
7 -40 63 0
-7 40 63 0
-2 -63 -64 0
2 63 -64 0
-2 63 64 0
2 -63 64 0
62 64 -65 0
-62 -64 -65 0
62 -64 65 0
-62 64 65 0
-66 -10 0
-66 -18 0
10 18 66 0
-67 -65 0
-67 66 0
65 -66 67 0
-68 -31 0
-68 49 0
31 -49 68 0
69 68 0
69 -63 0
-68 63 -69 0
-70 13 0
-70 -31 0
-13 31 70 0
69 -70 -71 0
-69 70 -71 0
69 70 71 0
-69 -70 71 0
-10 -64 -72 0
10 64 -72 0
-10 64 72 0
10 -64 72 0
73 -44 0
73 36 0
44 -36 -73 0
-74 -73 0
-74 -30 0
73 30 74 0
74 69 -75 0
-74 -69 -75 0
74 -69 75 0
-74 69 75 0
72 75 -76 0
-72 -75 -76 0
72 -75 76 0
-72 75 76 0
77 5 0
77 -4 0
-5 4 -77 0
-77 49 -78 0
77 -49 -78 0
-77 -49 78 0
77 49 78 0
-78 30 -79 0
78 -30 -79 0
-78 -30 79 0
78 30 79 0
-80 -79 0
-80 49 0
79 -49 80 0
73 78 -81 0
-73 -78 -81 0
73 -78 81 0
-73 78 81 0
-82 -80 0
-82 -81 0
80 81 82 0
-83 -73 0
-83 70 0
73 -70 83 0
84 -82 0
84 83 0
82 -83 -84 0
-85 -76 0
-85 -84 0
76 84 85 0
86 -1 0
86 -77 0
1 77 -86 0
-87 -64 0
-87 -7 0
64 7 87 0
86 87 -88 0
-86 -87 -88 0
86 -87 88 0
-86 87 88 0
-89 -85 0
-89 -88 0
85 88 89 0
71 89 -90 0
-71 -89 -90 0
71 -89 90 0
-71 89 90 0
91 -67 0
91 90 0
67 -90 -91 0
92 61 0
92 91 0
-61 -91 -92 0
93 54 0
93 92 0
-54 -92 -93 0
94 -27 0
94 93 0
27 -93 -94 0
34 -67 -90 0
31 81 -36 0
-49 -6 59 72 -88 55 0
83 57 46 -62 35 0
10 -77 0
-53 61 62 14 0
-10 6 73 19 -31 52 0
77 35 49 46 0
-54 36 0
-82 89 3 -65 25 -18 0
-33 -26 -59 0
61 56 -49 0
90 -20 -71 -40 0
-8 -71 0
13 92 -44 0
14 -26 -62 -11 77 0
-32 -42 -70 0
-9 23 4 0
79 -42 -36 -55 60 0
52 23 0
20 68 92 0
28 -91 -5 31 57 0
-29 19 55 0
-1 -19 -31 0
-36 -47 0
-8 85 -23 66 -30 0
24 -55 -62 72 0
7 -56 -50 -85 -74 -61 0
11 89 -17 0
-58 63 70 46 0
13 56 0
-28 -10 14 38 0
-90 22 0
-13 58 -59 -38 0
-51 -82 43 -94 44 0
-40 86 -16 84 90 -63 0
75 -18 4 -54 0
-61 40 0
-7 -45 0
94 0
